benchmark/results/graph__10-1000-0.10-03_8/graph__10-1000-0.10-03_8_QuintonOs_Benders_aux.lp
\ This file has been generated by DOcplex
\ ENCODING=ISO-8859-1
\Problem name: Quinton Bounded Benders_auxiliary_sub

Minimize
 obj: 0.001137634702 pi_nr_a0 + 0.001631317426 pi_nr_a1
      + 0.000862858813 pi_nr_a2 + 0.001431567911 pi_nr_a3
      + 0.001307760632 pi_nr_a4 + 0.001175088132 pi_nr_a5
      + 0.001289950702 pi_nr_a6 + 0.002188183807 pi_nr_a7
      + 0.001482178828 pi_nr_a8 + 0.000940695793 pi_nr_a9 + pi_p_a0_a2
      + pi_p_a0_a5 + pi_p_a8_a6 + pi_p_a8_a9 + pi_p_a7_a5 + pi_p_a7_a0
      + 1.313615777298 pi_d_a0_a1_proc_2 + 2392.697167871434 pi_d_a0_a1_proc_0
      + 2392.998546583413 pi_d_a0_a1_proc_1 + 0.307395622535 pi_d_a1_a0_proc_2
      + 2391.690947716671 pi_d_a1_a0_proc_0
      + 2391.992326428650 pi_d_a1_a0_proc_1 + 978.110971034617 pi_d_a0_a2_proc_2
      + 1435.301819801123 pi_d_a0_a2_proc_0 + 957.698180199693 pi_d_a2_a0_proc_2
      + 1414.889028966199 pi_d_a2_a0_proc_0
      + 1206.942302486893 pi_d_a0_a3_proc_2
      + 2404.674884157474 pi_d_a0_a3_proc_0
      + 1211.312500830483 pi_d_a0_a3_proc_1
      + 1181.989177503659 pi_d_a3_a0_proc_2
      + 2379.721759174241 pi_d_a3_a0_proc_0
      + 1186.359375847250 pi_d_a3_a0_proc_1 + 81.520424678633 pi_d_a0_a4_proc_2
      + 2393.495196633845 pi_d_a0_a4_proc_0
      + 2314.375003578662 pi_d_a0_a4_proc_1 + 78.926674751206 pi_d_a4_a0_proc_2
      + 2390.901446706418 pi_d_a4_a0_proc_0
      + 2311.781253651235 pi_d_a4_a0_proc_1
      + 1208.499982297266 pi_d_a0_a5_proc_0
      + 1183.896661043015 pi_d_a5_a0_proc_0 + 1.297694520993 pi_d_a0_a6_proc_2
      + 2390.754152768796 pi_d_a0_a6_proc_0
      + 2391.971175043249 pi_d_a0_a6_proc_1 + 2.282346298967 pi_d_a6_a0_proc_2
      + 2391.738804546771 pi_d_a6_a0_proc_0
      + 2392.955826821223 pi_d_a6_a0_proc_1 + 0.304957442965 pi_d_a0_a7_proc_2
      + 2391.701600782430 pi_d_a0_a7_proc_0
      + 2392.003279111474 pi_d_a0_a7_proc_1 + 1.298399218385 pi_d_a7_a0_proc_2
      + 2392.695042557851 pi_d_a7_a0_proc_0
      + 2392.996720886894 pi_d_a7_a0_proc_1
      + 1165.370712684236 pi_d_a0_a8_proc_2
      + 2150.826290702224 pi_d_a0_a8_proc_0
      + 1432.388512884173 pi_d_a0_a8_proc_1
      + 1189.980368503814 pi_d_a8_a0_proc_2
      + 2175.435946521803 pi_d_a8_a0_proc_0
      + 1456.998168703751 pi_d_a8_a0_proc_1
      + 1115.002887690995 pi_d_a0_a9_proc_2
      + 1480.156240995057 pi_d_a0_a9_proc_0
      + 2155.178876066108 pi_d_a0_a9_proc_1
      + 1138.444217856222 pi_d_a9_a0_proc_2
      + 1503.597571160283 pi_d_a9_a0_proc_0
      + 2178.620206231335 pi_d_a9_a0_proc_1 + 977.815101660580 pi_d_a1_a2_proc_2
      + 1435.596215842290 pi_d_a1_a2_proc_0 + 957.408347650862 pi_d_a2_a1_proc_2
      + 1415.189461832573 pi_d_a2_a1_proc_0
      + 1206.649405737916 pi_d_a1_a3_proc_2
      + 2404.972252823703 pi_d_a1_a3_proc_0
      + 1211.307891550604 pi_d_a1_a3_proc_1
      + 1181.696372329767 pi_d_a3_a1_proc_2
      + 2380.019219415554 pi_d_a3_a1_proc_0
      + 1186.354858142456 pi_d_a3_a1_proc_1 + 81.227527940491 pi_d_a1_a4_proc_2
      + 2393.792565310909 pi_d_a1_a4_proc_0
      + 2314.370394309618 pi_d_a1_a4_proc_1 + 78.633869566479 pi_d_a4_a1_proc_2
      + 2391.198906936896 pi_d_a4_a1_proc_0
      + 2311.776735935606 pi_d_a4_a1_proc_1
      + 1208.995693342546 pi_d_a1_a5_proc_0
      + 1183.995778905277 pi_d_a5_a1_proc_0 + 1.007946149010 pi_d_a1_a6_proc_2
      + 2391.054669812018 pi_d_a1_a6_proc_0
      + 2391.969714140363 pi_d_a1_a6_proc_1 + 1.986392748082 pi_d_a6_a1_proc_2
      + 2392.033116411090 pi_d_a6_a1_proc_0
      + 2392.948160739435 pi_d_a6_a1_proc_1 + 0.008923318907 pi_d_a1_a7_proc_2
      + 2391.995832073577 pi_d_a1_a7_proc_0
      + 2391.995532456513 pi_d_a1_a7_proc_1 + 1.008731419576 pi_d_a7_a1_proc_2
      + 2392.995640174246 pi_d_a7_a1_proc_0
      + 2392.995340557182 pi_d_a7_a1_proc_1
      + 1189.674763769655 pi_d_a1_a8_proc_2
      + 2175.720607202848 pi_d_a1_a8_proc_0
      + 1456.980851438690 pi_d_a1_a8_proc_1
      + 1165.090615495526 pi_d_a8_a1_proc_2
      + 2151.136458928720 pi_d_a8_a1_proc_0
      + 1432.396703164561 pi_d_a8_a1_proc_1
      + 1136.588065766541 pi_d_a1_a9_proc_2
      + 1502.331684485807 pi_d_a1_a9_proc_0
      + 2177.052341610751 pi_d_a1_a9_proc_1
      + 1116.273337857808 pi_d_a9_a1_proc_2
      + 1482.016956577075 pi_d_a9_a1_proc_0
      + 2156.737613702019 pi_d_a9_a1_proc_1
      + 2173.741568317000 pi_d_a2_a3_proc_2
      + 1437.871712075157 pi_d_a2_a3_proc_0
      + 2148.792349585161 pi_d_a3_a2_proc_2
      + 1412.922493343317 pi_d_a3_a2_proc_0
      + 1039.274768628307 pi_d_a2_a4_proc_2
      + 1417.647102671094 pi_d_a2_a4_proc_0
      + 1054.774768713141 pi_d_a4_a2_proc_2
      + 1433.147102755929 pi_d_a4_a2_proc_0 + 226.628239750798 pi_d_a2_a5_proc_0
      + 232.165965676242 pi_d_a5_a2_proc_0 + 959.862003300586 pi_d_a2_a6_proc_2
      + 1415.716023635964 pi_d_a2_a6_proc_0 + 977.320475430983 pi_d_a6_a2_proc_2
      + 1433.174495766362 pi_d_a6_a2_proc_0 + 977.549503273395 pi_d_a2_a7_proc_2
      + 1435.343708700435 pi_d_a2_a7_proc_0 + 957.656291299565 pi_d_a7_a2_proc_2
      + 1415.450496726605 pi_d_a7_a2_proc_0
      + 2134.264426765755 pi_d_a2_a8_proc_2
      + 1186.117566871318 pi_d_a2_a8_proc_0
      + 2154.689092333904 pi_d_a8_a2_proc_2
      + 1206.542232439468 pi_d_a8_a2_proc_0
      + 2096.250357673230 pi_d_a2_a9_proc_2 + 527.801273064867 pi_d_a2_a9_proc_0
      + 2090.799185785595 pi_d_a9_a2_proc_2 + 522.350101177232 pi_d_a9_a2_proc_0
      + 1266.449214254432 pi_d_a3_a4_proc_2
      + 2385.363281201296 pi_d_a3_a4_proc_0
      + 1112.277348161035 pi_d_a3_a4_proc_1
      + 1280.722651843257 pi_d_a4_a3_proc_2
      + 2399.636718790121 pi_d_a4_a3_proc_0
      + 1126.550785749860 pi_d_a4_a3_proc_1
      + 1208.999999995674 pi_d_a3_a5_proc_0
      + 1183.999999995760 pi_d_a5_a3_proc_0
      + 1182.676176946076 pi_d_a3_a6_proc_2
      + 2379.071930185531 pi_d_a3_a6_proc_0
      + 1186.323212474905 pi_d_a3_a6_proc_1
      + 1207.628630541735 pi_d_a6_a3_proc_2
      + 2404.024383781189 pi_d_a6_a3_proc_0
      + 1211.275666070564 pi_d_a6_a3_proc_1
      + 1181.687499172750 pi_d_a3_a7_proc_2
      + 2380.023437503866 pi_d_a3_a7_proc_0
      + 1186.359375847832 pi_d_a3_a7_proc_1
      + 1206.640624156451 pi_d_a7_a3_proc_2
      + 2404.976562487568 pi_d_a7_a3_proc_0
      + 1211.312500831533 pi_d_a7_a3_proc_1
      + 2368.024253723662 pi_d_a3_a8_proc_2
      + 2160.419126733302 pi_d_a3_a8_proc_0 + 248.015608930172 pi_d_a3_a8_proc_1
      + 2374.051594132238 pi_d_a8_a3_proc_2
      + 2166.446467141878 pi_d_a8_a3_proc_0 + 254.042949338749 pi_d_a8_a3_proc_1
      + 2330.113154394284 pi_d_a3_a9_proc_2
      + 1502.205802689997 pi_d_a3_a9_proc_0 + 983.262697775970 pi_d_a3_a9_proc_1
      + 2310.058717820783 pi_d_a9_a3_proc_2
      + 1482.151366116497 pi_d_a9_a3_proc_0 + 963.208261202470 pi_d_a9_a3_proc_1
      + 1208.999999999991 pi_d_a4_a5_proc_0
      + 1183.999999999991 pi_d_a5_a4_proc_0 + 81.273097973155 pi_d_a4_a6_proc_2
      + 2391.911041497240 pi_d_a4_a6_proc_0
      + 2313.404514058423 pi_d_a4_a6_proc_1 + 80.547328953943 pi_d_a6_a4_proc_2
      + 2391.185272478028 pi_d_a6_a4_proc_0
      + 2312.678745039211 pi_d_a6_a4_proc_1 + 80.285152594942 pi_d_a4_a7_proc_2
      + 2392.863281210690 pi_d_a4_a7_proc_0
      + 2313.441409826463 pi_d_a4_a7_proc_1 + 79.558590173546 pi_d_a7_a4_proc_2
      + 2392.136718789293 pi_d_a7_a4_proc_0
      + 2312.714847405066 pi_d_a7_a4_proc_1
      + 1269.048052743363 pi_d_a4_a8_proc_2
      + 2175.685116037634 pi_d_a4_a8_proc_0
      + 1377.523788506312 pi_d_a4_a8_proc_1
      + 1244.543414551824 pi_d_a8_a4_proc_2
      + 2151.180477846095 pi_d_a8_a4_proc_0
      + 1353.019150314773 pi_d_a8_a4_proc_1
      + 1197.982295690713 pi_d_a4_a9_proc_2
      + 1484.317134271056 pi_d_a4_a9_proc_0
      + 2079.616219628837 pi_d_a4_a9_proc_1
      + 1213.705195963642 pi_d_a9_a4_proc_2
      + 1500.040034543985 pi_d_a9_a4_proc_0
      + 2095.339119901766 pi_d_a9_a4_proc_1
      + 1208.037810867943 pi_d_a5_a6_proc_0
      + 1183.058503107343 pi_d_a6_a5_proc_0 + 1209 pi_d_a5_a7_proc_0
      + 1184 pi_d_a7_a5_proc_0 + 975.789663386361 pi_d_a5_a8_proc_0
      + 959.075930497384 pi_d_a8_a5_proc_0 + 292.711909647588 pi_d_a5_a9_proc_0
      + 299.645259167471 pi_d_a9_a5_proc_0 + 0.999084927993 pi_d_a6_a7_proc_2
      + 2391.058899836331 pi_d_a6_a7_proc_0
      + 2391.974243781740 pi_d_a6_a7_proc_1 + 1.977599230617 pi_d_a7_a6_proc_2
      + 2392.037414138955 pi_d_a7_a6_proc_0
      + 2392.952758084364 pi_d_a7_a6_proc_1
      + 1190.656673303790 pi_d_a6_a8_proc_2
      + 2174.775422890651 pi_d_a6_a8_proc_0
      + 1456.951310688966 pi_d_a6_a8_proc_1
      + 1166.067735381519 pi_d_a8_a6_proc_2
      + 2150.186484968380 pi_d_a8_a6_proc_0
      + 1432.362372766694 pi_d_a8_a6_proc_1
      + 1139.197569987134 pi_d_a6_a9_proc_2
      + 1503.014094860068 pi_d_a6_a9_proc_0
      + 2178.650395547485 pi_d_a6_a9_proc_1
      + 1115.622863057343 pi_d_a9_a6_proc_2
      + 1479.439387930277 pi_d_a9_a6_proc_0
      + 2155.075688617694 pi_d_a9_a6_proc_1
      + 1189.681838665153 pi_d_a7_a8_proc_2
      + 2175.740773343677 pi_d_a7_a8_proc_0
      + 1457.001317196582 pi_d_a7_a8_proc_1
      + 1165.065885861545 pi_d_a8_a7_proc_2
      + 2151.124820540069 pi_d_a8_a7_proc_0
      + 1432.385364392974 pi_d_a8_a7_proc_1
      + 1116.374808814439 pi_d_a7_a9_proc_2
      + 1482.131518779036 pi_d_a7_a9_proc_0
      + 2156.852475521044 pi_d_a7_a9_proc_1
      + 1136.468940071427 pi_d_a9_a7_proc_2
      + 1502.225650036023 pi_d_a9_a7_proc_0
      + 2176.946606778031 pi_d_a9_a7_proc_1
      + 2315.595419142618 pi_d_a8_a9_proc_2
      + 1275.411063785738 pi_d_a8_a9_proc_0
      + 1231.392564380651 pi_d_a8_a9_proc_1
      + 2290.996054269947 pi_d_a9_a8_proc_2
      + 1250.811698913067 pi_d_a9_a8_proc_0
      + 1206.793199507980 pi_d_a9_a8_proc_1 + 0.000252239406 pi_y2_a0_proc_0
      + 0.000000000001 pi_y2_a0_proc_1 + 0.999747760593 pi_y2_a0_proc_2
      + 0.000003565114 pi_y2_a1_proc_0 + 0.000003815630 pi_y2_a1_proc_1
      + 0.999992619256 pi_y2_a1_proc_2 + 0.808614462614 pi_y2_a2_proc_0
      + 0.191385537386 pi_y2_a2_proc_2 + 0.000000000004 pi_y2_a3_proc_0
      + 0.998046874298 pi_y2_a3_proc_1 + 0.001953125698 pi_y2_a3_proc_2
      + 0.000000000000 pi_y2_a4_proc_0 + 0.066406246977 pi_y2_a4_proc_1
      + 0.933593753023 pi_y2_a4_proc_2 + pi_y2_a5_proc_0
      + 0.000795855362 pi_y2_a6_proc_0 + 0.000030517615 pi_y2_a6_proc_1
      + 0.999173627024 pi_y2_a6_proc_2 + 0.000000000000 pi_y2_a7_proc_0
      + 0.000000000000 pi_y2_a7_proc_1 + pi_y2_a7_proc_2
      + 0.191527761754 pi_y2_a8_proc_0 + 0.792480484285 pi_y2_a8_proc_1
      + 0.015991753960 pi_y2_a8_proc_2 + 0.752777103338 pi_y2_a9_proc_0
      + 0.188629146196 pi_y2_a9_proc_1 + 0.058593750466 pi_y2_a9_proc_2
Subject To
 c1: 0.001137656428 pi_nr_a0 + 0.001631321370 pi_nr_a1 + 0.000850340136 pi_nr_a2
     + 0.001432664756 pi_nr_a3 + 0.001307189542 pi_nr_a4
     + 0.001175088132 pi_nr_a5 + 0.001290322581 pi_nr_a6
     + 0.002188183807 pi_nr_a7 + 0.001644736842 pi_nr_a8
     + 0.000862812770 pi_nr_a9 + pi_p_a0_a2 + pi_p_a0_a5 + pi_p_a8_a6
     + pi_p_a8_a9 + pi_p_a7_a5 + pi_p_a7_a0 + pi_d_a0_a1_proc_2
     + 2393 pi_d_a0_a1_proc_0 + 2393 pi_d_a0_a1_proc_1 + 2392 pi_d_a1_a0_proc_0
     + 2392 pi_d_a1_a0_proc_1 + 1209 pi_d_a0_a2_proc_2 + 1209 pi_d_a0_a2_proc_0
     + 1184 pi_d_a2_a0_proc_2 + 1184 pi_d_a2_a0_proc_0 + 1209 pi_d_a0_a3_proc_2
     + 2405 pi_d_a0_a3_proc_0 + 1209 pi_d_a0_a3_proc_1 + 1184 pi_d_a3_a0_proc_2
     + 2380 pi_d_a3_a0_proc_0 + 1184 pi_d_a3_a0_proc_1 + pi_d_a0_a4_proc_2
     + 2393 pi_d_a0_a4_proc_0 + 2393 pi_d_a0_a4_proc_1 + 2392 pi_d_a4_a0_proc_0
     + 2392 pi_d_a4_a0_proc_1 + 1209 pi_d_a0_a5_proc_0 + 1184 pi_d_a5_a0_proc_0
     + 2392 pi_d_a0_a6_proc_0 + 2392 pi_d_a0_a6_proc_1 + pi_d_a6_a0_proc_2
     + 2393 pi_d_a6_a0_proc_0 + 2393 pi_d_a6_a0_proc_1 + 2392 pi_d_a0_a7_proc_0
     + 2392 pi_d_a0_a7_proc_1 + pi_d_a7_a0_proc_2 + 2393 pi_d_a7_a0_proc_0
     + 2393 pi_d_a7_a0_proc_1 + 1184 pi_d_a0_a8_proc_2 + 2380 pi_d_a0_a8_proc_0
     + 1184 pi_d_a0_a8_proc_1 + 1209 pi_d_a8_a0_proc_2 + 2405 pi_d_a8_a0_proc_0
     + 1209 pi_d_a8_a0_proc_1 + 1184 pi_d_a0_a9_proc_2 + 1184 pi_d_a0_a9_proc_0
     + 2380 pi_d_a0_a9_proc_1 + 1209 pi_d_a9_a0_proc_2 + 1209 pi_d_a9_a0_proc_0
     + 2405 pi_d_a9_a0_proc_1 + 1209 pi_d_a1_a2_proc_2 + 1209 pi_d_a1_a2_proc_0
     + 1184 pi_d_a2_a1_proc_2 + 1184 pi_d_a2_a1_proc_0 + 1209 pi_d_a1_a3_proc_2
     + 2405 pi_d_a1_a3_proc_0 + 1209 pi_d_a1_a3_proc_1 + 1184 pi_d_a3_a1_proc_2
     + 2380 pi_d_a3_a1_proc_0 + 1184 pi_d_a3_a1_proc_1 + pi_d_a1_a4_proc_2
     + 2393 pi_d_a1_a4_proc_0 + 2393 pi_d_a1_a4_proc_1 + 2392 pi_d_a4_a1_proc_0
     + 2392 pi_d_a4_a1_proc_1 + 1209 pi_d_a1_a5_proc_0 + 1184 pi_d_a5_a1_proc_0
     + 2392 pi_d_a1_a6_proc_0 + 2392 pi_d_a1_a6_proc_1 + pi_d_a6_a1_proc_2
     + 2393 pi_d_a6_a1_proc_0 + 2393 pi_d_a6_a1_proc_1 + 2392 pi_d_a1_a7_proc_0
     + 2392 pi_d_a1_a7_proc_1 + pi_d_a7_a1_proc_2 + 2393 pi_d_a7_a1_proc_0
     + 2393 pi_d_a7_a1_proc_1 + 1209 pi_d_a1_a8_proc_2 + 2405 pi_d_a1_a8_proc_0
     + 1209 pi_d_a1_a8_proc_1 + 1184 pi_d_a8_a1_proc_2 + 2380 pi_d_a8_a1_proc_0
     + 1184 pi_d_a8_a1_proc_1 + 1209 pi_d_a1_a9_proc_2 + 1209 pi_d_a1_a9_proc_0
     + 2405 pi_d_a1_a9_proc_1 + 1184 pi_d_a9_a1_proc_2 + 1184 pi_d_a9_a1_proc_0
     + 2380 pi_d_a9_a1_proc_1 + 2405 pi_d_a2_a3_proc_2 + 1209 pi_d_a2_a3_proc_0
     + 2380 pi_d_a3_a2_proc_2 + 1184 pi_d_a3_a2_proc_0 + 1184 pi_d_a2_a4_proc_2
     + 1184 pi_d_a2_a4_proc_0 + 1209 pi_d_a4_a2_proc_2 + 1209 pi_d_a4_a2_proc_0
     + pi_d_a5_a2_proc_0 + 1184 pi_d_a2_a6_proc_2 + 1184 pi_d_a2_a6_proc_0
     + 1209 pi_d_a6_a2_proc_2 + 1209 pi_d_a6_a2_proc_0 + 1209 pi_d_a2_a7_proc_2
     + 1209 pi_d_a2_a7_proc_0 + 1184 pi_d_a7_a2_proc_2 + 1184 pi_d_a7_a2_proc_0
     + 2380 pi_d_a2_a8_proc_2 + 1184 pi_d_a2_a8_proc_0 + 2405 pi_d_a8_a2_proc_2
     + 1209 pi_d_a8_a2_proc_0 + 2392 pi_d_a2_a9_proc_2 + 2393 pi_d_a9_a2_proc_2
     + pi_d_a9_a2_proc_0 + 1184 pi_d_a3_a4_proc_2 + 2380 pi_d_a3_a4_proc_0
     + 1184 pi_d_a3_a4_proc_1 + 1209 pi_d_a4_a3_proc_2 + 2405 pi_d_a4_a3_proc_0
     + 1209 pi_d_a4_a3_proc_1 + 1209 pi_d_a3_a5_proc_0 + 1184 pi_d_a5_a3_proc_0
     + 1184 pi_d_a3_a6_proc_2 + 2380 pi_d_a3_a6_proc_0 + 1184 pi_d_a3_a6_proc_1
     + 1209 pi_d_a6_a3_proc_2 + 2405 pi_d_a6_a3_proc_0 + 1209 pi_d_a6_a3_proc_1
     + 1184 pi_d_a3_a7_proc_2 + 2380 pi_d_a3_a7_proc_0 + 1184 pi_d_a3_a7_proc_1
     + 1209 pi_d_a7_a3_proc_2 + 2405 pi_d_a7_a3_proc_0 + 1209 pi_d_a7_a3_proc_1
     + 2392 pi_d_a3_a8_proc_2 + 2392 pi_d_a3_a8_proc_0 + 2393 pi_d_a8_a3_proc_2
     + 2393 pi_d_a8_a3_proc_0 + pi_d_a8_a3_proc_1 + 2405 pi_d_a3_a9_proc_2
     + 1209 pi_d_a3_a9_proc_0 + 1209 pi_d_a3_a9_proc_1 + 2380 pi_d_a9_a3_proc_2
     + 1184 pi_d_a9_a3_proc_0 + 1184 pi_d_a9_a3_proc_1 + 1209 pi_d_a4_a5_proc_0
     + 1184 pi_d_a5_a4_proc_0 + 2392 pi_d_a4_a6_proc_0 + 2392 pi_d_a4_a6_proc_1
     + pi_d_a6_a4_proc_2 + 2393 pi_d_a6_a4_proc_0 + 2393 pi_d_a6_a4_proc_1
     + 2392 pi_d_a4_a7_proc_0 + 2392 pi_d_a4_a7_proc_1 + pi_d_a7_a4_proc_2
     + 2393 pi_d_a7_a4_proc_0 + 2393 pi_d_a7_a4_proc_1 + 1209 pi_d_a4_a8_proc_2
     + 2405 pi_d_a4_a8_proc_0 + 1209 pi_d_a4_a8_proc_1 + 1184 pi_d_a8_a4_proc_2
     + 2380 pi_d_a8_a4_proc_0 + 1184 pi_d_a8_a4_proc_1 + 1184 pi_d_a4_a9_proc_2
     + 1184 pi_d_a4_a9_proc_0 + 2380 pi_d_a4_a9_proc_1 + 1209 pi_d_a9_a4_proc_2
     + 1209 pi_d_a9_a4_proc_0 + 2405 pi_d_a9_a4_proc_1 + 1209 pi_d_a5_a6_proc_0
     + 1184 pi_d_a6_a5_proc_0 + 1209 pi_d_a5_a7_proc_0 + 1184 pi_d_a7_a5_proc_0
     + 1209 pi_d_a5_a8_proc_0 + 1184 pi_d_a8_a5_proc_0 + pi_d_a9_a5_proc_0
     + 2392 pi_d_a6_a7_proc_0 + 2392 pi_d_a6_a7_proc_1 + pi_d_a7_a6_proc_2
     + 2393 pi_d_a7_a6_proc_0 + 2393 pi_d_a7_a6_proc_1 + 1209 pi_d_a6_a8_proc_2
     + 2405 pi_d_a6_a8_proc_0 + 1209 pi_d_a6_a8_proc_1 + 1184 pi_d_a8_a6_proc_2
     + 2380 pi_d_a8_a6_proc_0 + 1184 pi_d_a8_a6_proc_1 + 1209 pi_d_a6_a9_proc_2
     + 1209 pi_d_a6_a9_proc_0 + 2405 pi_d_a6_a9_proc_1 + 1184 pi_d_a9_a6_proc_2
     + 1184 pi_d_a9_a6_proc_0 + 2380 pi_d_a9_a6_proc_1 + 1209 pi_d_a7_a8_proc_2
     + 2405 pi_d_a7_a8_proc_0 + 1209 pi_d_a7_a8_proc_1 + 1184 pi_d_a8_a7_proc_2
     + 2380 pi_d_a8_a7_proc_0 + 1184 pi_d_a8_a7_proc_1 + 1184 pi_d_a7_a9_proc_2
     + 1184 pi_d_a7_a9_proc_0 + 2380 pi_d_a7_a9_proc_1 + 1209 pi_d_a9_a7_proc_2
     + 1209 pi_d_a9_a7_proc_0 + 2405 pi_d_a9_a7_proc_1 + 2405 pi_d_a8_a9_proc_2
     + 1209 pi_d_a8_a9_proc_0 + 1209 pi_d_a8_a9_proc_1 + 2380 pi_d_a9_a8_proc_2
     + 1184 pi_d_a9_a8_proc_0 + 1184 pi_d_a9_a8_proc_1 + pi_y2_a0_proc_2
     + pi_y2_a1_proc_2 + pi_y2_a2_proc_0 + pi_y2_a3_proc_1 + pi_y2_a4_proc_2
     + pi_y2_a5_proc_0 + pi_y2_a6_proc_2 + pi_y2_a7_proc_2 + pi_y2_a8_proc_1
     + pi_y2_a9_proc_0 = 0.000230414747
 c2: pi_nr_a0 + pi_nr_a1 + pi_nr_a2 + pi_nr_a3 + pi_nr_a4 + pi_nr_a5 + pi_nr_a6
     + pi_nr_a7 + pi_nr_a8 + pi_nr_a9 - pi_y1_a0 - pi_y1_a1 - pi_y1_a2
     - pi_y1_a3 - pi_y1_a4 - pi_y1_a5 - pi_y1_a6 - pi_y1_a7 - pi_y1_a8
     - pi_y1_a9 >= 1
 c3: - pi_p_a1_a0 + pi_p_a0_a2 + pi_p_a0_a5 + pi_p_a0_a6 - pi_p_a7_a0
     + pi_d_a0_a1_proc_2 + pi_d_a0_a1_proc_0 + pi_d_a0_a1_proc_1
     - pi_d_a1_a0_proc_2 - pi_d_a1_a0_proc_0 - pi_d_a1_a0_proc_1
     + pi_d_a0_a2_proc_2 + pi_d_a0_a2_proc_0 - pi_d_a2_a0_proc_2
     - pi_d_a2_a0_proc_0 + pi_d_a0_a3_proc_2 + pi_d_a0_a3_proc_0
     + pi_d_a0_a3_proc_1 - pi_d_a3_a0_proc_2 - pi_d_a3_a0_proc_0
     - pi_d_a3_a0_proc_1 + pi_d_a0_a4_proc_2 + pi_d_a0_a4_proc_0
     + pi_d_a0_a4_proc_1 - pi_d_a4_a0_proc_2 - pi_d_a4_a0_proc_0
     - pi_d_a4_a0_proc_1 + pi_d_a0_a5_proc_0 - pi_d_a5_a0_proc_0
     + pi_d_a0_a6_proc_2 + pi_d_a0_a6_proc_0 + pi_d_a0_a6_proc_1
     - pi_d_a6_a0_proc_2 - pi_d_a6_a0_proc_0 - pi_d_a6_a0_proc_1
     + pi_d_a0_a7_proc_2 + pi_d_a0_a7_proc_0 + pi_d_a0_a7_proc_1
     - pi_d_a7_a0_proc_2 - pi_d_a7_a0_proc_0 - pi_d_a7_a0_proc_1
     + pi_d_a0_a8_proc_2 + pi_d_a0_a8_proc_0 + pi_d_a0_a8_proc_1
     - pi_d_a8_a0_proc_2 - pi_d_a8_a0_proc_0 - pi_d_a8_a0_proc_1
     + pi_d_a0_a9_proc_2 + pi_d_a0_a9_proc_0 + pi_d_a0_a9_proc_1
     - pi_d_a9_a0_proc_2 - pi_d_a9_a0_proc_0 - pi_d_a9_a0_proc_1 >= 0
 c4: 951 pi_p_a0_a2 + 951 pi_p_a0_a5 + 951 pi_p_a0_a6 + 951 pi_d_a0_a1_proc_0
     + 951 pi_d_a0_a2_proc_0 + 951 pi_d_a0_a3_proc_0 + 951 pi_d_a0_a4_proc_0
     + 951 pi_d_a0_a5_proc_0 + 951 pi_d_a0_a6_proc_0 + 951 pi_d_a0_a7_proc_0
     + 951 pi_d_a0_a8_proc_0 + 951 pi_d_a0_a9_proc_0 + pi_y1_a0
     + pi_y2_a0_proc_0 >= 0
 c5: 1018 pi_p_a0_a2 + 1018 pi_p_a0_a5 + 1018 pi_p_a0_a6
     + 1018 pi_d_a0_a1_proc_1 + 1018 pi_d_a0_a3_proc_1 + 1018 pi_d_a0_a4_proc_1
     + 1018 pi_d_a0_a6_proc_1 + 1018 pi_d_a0_a7_proc_1 + 1018 pi_d_a0_a8_proc_1
     + 1018 pi_d_a0_a9_proc_1 + pi_y1_a0 + pi_y2_a0_proc_1 >= 0
 c6: 879 pi_p_a0_a2 + 879 pi_p_a0_a5 + 879 pi_p_a0_a6 + 879 pi_d_a0_a1_proc_2
     + 879 pi_d_a0_a2_proc_2 + 879 pi_d_a0_a3_proc_2 + 879 pi_d_a0_a4_proc_2
     + 879 pi_d_a0_a6_proc_2 + 879 pi_d_a0_a7_proc_2 + 879 pi_d_a0_a8_proc_2
     + 879 pi_d_a0_a9_proc_2 + pi_y1_a0 + pi_y2_a0_proc_2 >= 0
 c7: pi_p_a1_a0 - pi_p_a3_a1 - pi_p_a4_a1 - pi_d_a0_a1_proc_2
     - pi_d_a0_a1_proc_0 - pi_d_a0_a1_proc_1 + pi_d_a1_a0_proc_2
     + pi_d_a1_a0_proc_0 + pi_d_a1_a0_proc_1 + pi_d_a1_a2_proc_2
     + pi_d_a1_a2_proc_0 - pi_d_a2_a1_proc_2 - pi_d_a2_a1_proc_0
     + pi_d_a1_a3_proc_2 + pi_d_a1_a3_proc_0 + pi_d_a1_a3_proc_1
     - pi_d_a3_a1_proc_2 - pi_d_a3_a1_proc_0 - pi_d_a3_a1_proc_1
     + pi_d_a1_a4_proc_2 + pi_d_a1_a4_proc_0 + pi_d_a1_a4_proc_1
     - pi_d_a4_a1_proc_2 - pi_d_a4_a1_proc_0 - pi_d_a4_a1_proc_1
     + pi_d_a1_a5_proc_0 - pi_d_a5_a1_proc_0 + pi_d_a1_a6_proc_2
     + pi_d_a1_a6_proc_0 + pi_d_a1_a6_proc_1 - pi_d_a6_a1_proc_2
     - pi_d_a6_a1_proc_0 - pi_d_a6_a1_proc_1 + pi_d_a1_a7_proc_2
     + pi_d_a1_a7_proc_0 + pi_d_a1_a7_proc_1 - pi_d_a7_a1_proc_2
     - pi_d_a7_a1_proc_0 - pi_d_a7_a1_proc_1 + pi_d_a1_a8_proc_2
     + pi_d_a1_a8_proc_0 + pi_d_a1_a8_proc_1 - pi_d_a8_a1_proc_2
     - pi_d_a8_a1_proc_0 - pi_d_a8_a1_proc_1 + pi_d_a1_a9_proc_2
     + pi_d_a1_a9_proc_0 + pi_d_a1_a9_proc_1 - pi_d_a9_a1_proc_2
     - pi_d_a9_a1_proc_0 - pi_d_a9_a1_proc_1 >= 0
 c8: 1102 pi_p_a1_a0 + 1102 pi_d_a1_a0_proc_0 + 1102 pi_d_a1_a2_proc_0
     + 1102 pi_d_a1_a3_proc_0 + 1102 pi_d_a1_a4_proc_0 + 1102 pi_d_a1_a5_proc_0
     + 1102 pi_d_a1_a6_proc_0 + 1102 pi_d_a1_a7_proc_0 + 1102 pi_d_a1_a8_proc_0
     + 1102 pi_d_a1_a9_proc_0 + pi_y1_a1 + pi_y2_a1_proc_0 >= 0
 c9: 785 pi_p_a1_a0 + 785 pi_d_a1_a0_proc_1 + 785 pi_d_a1_a3_proc_1
     + 785 pi_d_a1_a4_proc_1 + 785 pi_d_a1_a6_proc_1 + 785 pi_d_a1_a7_proc_1
     + 785 pi_d_a1_a8_proc_1 + 785 pi_d_a1_a9_proc_1 + pi_y1_a1
     + pi_y2_a1_proc_1 >= 0
 c10: 613 pi_p_a1_a0 + 613 pi_d_a1_a0_proc_2 + 613 pi_d_a1_a2_proc_2
      + 613 pi_d_a1_a3_proc_2 + 613 pi_d_a1_a4_proc_2 + 613 pi_d_a1_a6_proc_2
      + 613 pi_d_a1_a7_proc_2 + 613 pi_d_a1_a8_proc_2 + 613 pi_d_a1_a9_proc_2
      + pi_y1_a1 + pi_y2_a1_proc_2 >= 0
 c11: - pi_p_a0_a2 + pi_p_a2_a3 - pi_d_a0_a2_proc_2 - pi_d_a0_a2_proc_0
      + pi_d_a2_a0_proc_2 + pi_d_a2_a0_proc_0 - pi_d_a1_a2_proc_2
      - pi_d_a1_a2_proc_0 + pi_d_a2_a1_proc_2 + pi_d_a2_a1_proc_0
      + pi_d_a2_a3_proc_2 + pi_d_a2_a3_proc_0 - pi_d_a3_a2_proc_2
      - pi_d_a3_a2_proc_0 + pi_d_a2_a4_proc_2 + pi_d_a2_a4_proc_0
      - pi_d_a4_a2_proc_2 - pi_d_a4_a2_proc_0 + pi_d_a2_a5_proc_0
      - pi_d_a5_a2_proc_0 + pi_d_a2_a6_proc_2 + pi_d_a2_a6_proc_0
      - pi_d_a6_a2_proc_2 - pi_d_a6_a2_proc_0 + pi_d_a2_a7_proc_2
      + pi_d_a2_a7_proc_0 - pi_d_a7_a2_proc_2 - pi_d_a7_a2_proc_0
      + pi_d_a2_a8_proc_2 + pi_d_a2_a8_proc_0 - pi_d_a8_a2_proc_2
      - pi_d_a8_a2_proc_0 + pi_d_a2_a9_proc_2 + pi_d_a2_a9_proc_0
      - pi_d_a9_a2_proc_2 - pi_d_a9_a2_proc_0 >= 0
 c12: 1176 pi_p_a2_a3 + 1176 pi_d_a2_a0_proc_0 + 1176 pi_d_a2_a1_proc_0
      + 1176 pi_d_a2_a3_proc_0 + 1176 pi_d_a2_a4_proc_0 + 1176 pi_d_a2_a5_proc_0
      + 1176 pi_d_a2_a6_proc_0 + 1176 pi_d_a2_a7_proc_0 + 1176 pi_d_a2_a8_proc_0
      + 1176 pi_d_a2_a9_proc_0 + pi_y1_a2 + pi_y2_a2_proc_0 >= 0
 c13: 1092 pi_p_a2_a3 + 1092 pi_d_a2_a0_proc_2 + 1092 pi_d_a2_a1_proc_2
      + 1092 pi_d_a2_a3_proc_2 + 1092 pi_d_a2_a4_proc_2 + 1092 pi_d_a2_a6_proc_2
      + 1092 pi_d_a2_a7_proc_2 + 1092 pi_d_a2_a8_proc_2 + 1092 pi_d_a2_a9_proc_2
      + pi_y1_a2 + pi_y2_a2_proc_2 >= 0
 c14: pi_p_a3_a1 - pi_p_a2_a3 - pi_d_a0_a3_proc_2 - pi_d_a0_a3_proc_0
      - pi_d_a0_a3_proc_1 + pi_d_a3_a0_proc_2 + pi_d_a3_a0_proc_0
      + pi_d_a3_a0_proc_1 - pi_d_a1_a3_proc_2 - pi_d_a1_a3_proc_0
      - pi_d_a1_a3_proc_1 + pi_d_a3_a1_proc_2 + pi_d_a3_a1_proc_0
      + pi_d_a3_a1_proc_1 - pi_d_a2_a3_proc_2 - pi_d_a2_a3_proc_0
      + pi_d_a3_a2_proc_2 + pi_d_a3_a2_proc_0 + pi_d_a3_a4_proc_2
      + pi_d_a3_a4_proc_0 + pi_d_a3_a4_proc_1 - pi_d_a4_a3_proc_2
      - pi_d_a4_a3_proc_0 - pi_d_a4_a3_proc_1 + pi_d_a3_a5_proc_0
      - pi_d_a5_a3_proc_0 + pi_d_a3_a6_proc_2 + pi_d_a3_a6_proc_0
      + pi_d_a3_a6_proc_1 - pi_d_a6_a3_proc_2 - pi_d_a6_a3_proc_0
      - pi_d_a6_a3_proc_1 + pi_d_a3_a7_proc_2 + pi_d_a3_a7_proc_0
      + pi_d_a3_a7_proc_1 - pi_d_a7_a3_proc_2 - pi_d_a7_a3_proc_0
      - pi_d_a7_a3_proc_1 + pi_d_a3_a8_proc_2 + pi_d_a3_a8_proc_0
      + pi_d_a3_a8_proc_1 - pi_d_a8_a3_proc_2 - pi_d_a8_a3_proc_0
      - pi_d_a8_a3_proc_1 + pi_d_a3_a9_proc_2 + pi_d_a3_a9_proc_0
      + pi_d_a3_a9_proc_1 - pi_d_a9_a3_proc_2 - pi_d_a9_a3_proc_0
      - pi_d_a9_a3_proc_1 >= 0
 c15: 1109 pi_p_a3_a1 + 1109 pi_d_a3_a0_proc_0 + 1109 pi_d_a3_a1_proc_0
      + 1109 pi_d_a3_a2_proc_0 + 1109 pi_d_a3_a4_proc_0 + 1109 pi_d_a3_a5_proc_0
      + 1109 pi_d_a3_a6_proc_0 + 1109 pi_d_a3_a7_proc_0 + 1109 pi_d_a3_a8_proc_0
      + 1109 pi_d_a3_a9_proc_0 + pi_y1_a3 + pi_y2_a3_proc_0 >= 0
 c16: 698 pi_p_a3_a1 + 698 pi_d_a3_a0_proc_1 + 698 pi_d_a3_a1_proc_1
      + 698 pi_d_a3_a4_proc_1 + 698 pi_d_a3_a6_proc_1 + 698 pi_d_a3_a7_proc_1
      + 698 pi_d_a3_a8_proc_1 + 698 pi_d_a3_a9_proc_1 + pi_y1_a3
      + pi_y2_a3_proc_1 >= 0
 c17: 1148 pi_p_a3_a1 + 1148 pi_d_a3_a0_proc_2 + 1148 pi_d_a3_a1_proc_2
      + 1148 pi_d_a3_a2_proc_2 + 1148 pi_d_a3_a4_proc_2 + 1148 pi_d_a3_a6_proc_2
      + 1148 pi_d_a3_a7_proc_2 + 1148 pi_d_a3_a8_proc_2 + 1148 pi_d_a3_a9_proc_2
      + pi_y1_a3 + pi_y2_a3_proc_2 >= 0
 c18: pi_p_a4_a1 - pi_p_a5_a4 - pi_d_a0_a4_proc_2 - pi_d_a0_a4_proc_0
      - pi_d_a0_a4_proc_1 + pi_d_a4_a0_proc_2 + pi_d_a4_a0_proc_0
      + pi_d_a4_a0_proc_1 - pi_d_a1_a4_proc_2 - pi_d_a1_a4_proc_0
      - pi_d_a1_a4_proc_1 + pi_d_a4_a1_proc_2 + pi_d_a4_a1_proc_0
      + pi_d_a4_a1_proc_1 - pi_d_a2_a4_proc_2 - pi_d_a2_a4_proc_0
      + pi_d_a4_a2_proc_2 + pi_d_a4_a2_proc_0 - pi_d_a3_a4_proc_2
      - pi_d_a3_a4_proc_0 - pi_d_a3_a4_proc_1 + pi_d_a4_a3_proc_2
      + pi_d_a4_a3_proc_0 + pi_d_a4_a3_proc_1 + pi_d_a4_a5_proc_0
      - pi_d_a5_a4_proc_0 + pi_d_a4_a6_proc_2 + pi_d_a4_a6_proc_0
      + pi_d_a4_a6_proc_1 - pi_d_a6_a4_proc_2 - pi_d_a6_a4_proc_0
      - pi_d_a6_a4_proc_1 + pi_d_a4_a7_proc_2 + pi_d_a4_a7_proc_0
      + pi_d_a4_a7_proc_1 - pi_d_a7_a4_proc_2 - pi_d_a7_a4_proc_0
      - pi_d_a7_a4_proc_1 + pi_d_a4_a8_proc_2 + pi_d_a4_a8_proc_0
      + pi_d_a4_a8_proc_1 - pi_d_a8_a4_proc_2 - pi_d_a8_a4_proc_0
      - pi_d_a8_a4_proc_1 + pi_d_a4_a9_proc_2 + pi_d_a4_a9_proc_0
      + pi_d_a4_a9_proc_1 - pi_d_a9_a4_proc_2 - pi_d_a9_a4_proc_0
      - pi_d_a9_a4_proc_1 >= 0
 c19: 974 pi_p_a4_a1 + 974 pi_d_a4_a0_proc_0 + 974 pi_d_a4_a1_proc_0
      + 974 pi_d_a4_a2_proc_0 + 974 pi_d_a4_a3_proc_0 + 974 pi_d_a4_a5_proc_0
      + 974 pi_d_a4_a6_proc_0 + 974 pi_d_a4_a7_proc_0 + 974 pi_d_a4_a8_proc_0
      + 974 pi_d_a4_a9_proc_0 + pi_y1_a4 + pi_y2_a4_proc_0 >= 0
 c20: 760 pi_p_a4_a1 + 760 pi_d_a4_a0_proc_1 + 760 pi_d_a4_a1_proc_1
      + 760 pi_d_a4_a3_proc_1 + 760 pi_d_a4_a6_proc_1 + 760 pi_d_a4_a7_proc_1
      + 760 pi_d_a4_a8_proc_1 + 760 pi_d_a4_a9_proc_1 + pi_y1_a4
      + pi_y2_a4_proc_1 >= 0
 c21: 765 pi_p_a4_a1 + 765 pi_d_a4_a0_proc_2 + 765 pi_d_a4_a1_proc_2
      + 765 pi_d_a4_a2_proc_2 + 765 pi_d_a4_a3_proc_2 + 765 pi_d_a4_a6_proc_2
      + 765 pi_d_a4_a7_proc_2 + 765 pi_d_a4_a8_proc_2 + 765 pi_d_a4_a9_proc_2
      + pi_y1_a4 + pi_y2_a4_proc_2 >= 0
 c22: - pi_p_a0_a5 + pi_p_a5_a7 - pi_p_a7_a5 + pi_p_a5_a4 - pi_d_a0_a5_proc_0
      + pi_d_a5_a0_proc_0 - pi_d_a1_a5_proc_0 + pi_d_a5_a1_proc_0
      - pi_d_a2_a5_proc_0 + pi_d_a5_a2_proc_0 - pi_d_a3_a5_proc_0
      + pi_d_a5_a3_proc_0 - pi_d_a4_a5_proc_0 + pi_d_a5_a4_proc_0
      + pi_d_a5_a6_proc_0 - pi_d_a6_a5_proc_0 + pi_d_a5_a7_proc_0
      - pi_d_a7_a5_proc_0 + pi_d_a5_a8_proc_0 - pi_d_a8_a5_proc_0
      + pi_d_a5_a9_proc_0 - pi_d_a9_a5_proc_0 >= 0
 c23: 851 pi_p_a5_a7 + 851 pi_p_a5_a4 + 851 pi_d_a5_a0_proc_0
      + 851 pi_d_a5_a1_proc_0 + 851 pi_d_a5_a2_proc_0 + 851 pi_d_a5_a3_proc_0
      + 851 pi_d_a5_a4_proc_0 + 851 pi_d_a5_a6_proc_0 + 851 pi_d_a5_a7_proc_0
      + 851 pi_d_a5_a8_proc_0 + 851 pi_d_a5_a9_proc_0 + pi_y1_a5
      + pi_y2_a5_proc_0 >= 0
 c24: - pi_p_a0_a6 + pi_p_a6_a7 - pi_p_a8_a6 - pi_p_a9_a6 + pi_p_a6_a8
      - pi_d_a0_a6_proc_2 - pi_d_a0_a6_proc_0 - pi_d_a0_a6_proc_1
      + pi_d_a6_a0_proc_2 + pi_d_a6_a0_proc_0 + pi_d_a6_a0_proc_1
      - pi_d_a1_a6_proc_2 - pi_d_a1_a6_proc_0 - pi_d_a1_a6_proc_1
      + pi_d_a6_a1_proc_2 + pi_d_a6_a1_proc_0 + pi_d_a6_a1_proc_1
      - pi_d_a2_a6_proc_2 - pi_d_a2_a6_proc_0 + pi_d_a6_a2_proc_2
      + pi_d_a6_a2_proc_0 - pi_d_a3_a6_proc_2 - pi_d_a3_a6_proc_0
      - pi_d_a3_a6_proc_1 + pi_d_a6_a3_proc_2 + pi_d_a6_a3_proc_0
      + pi_d_a6_a3_proc_1 - pi_d_a4_a6_proc_2 - pi_d_a4_a6_proc_0
      - pi_d_a4_a6_proc_1 + pi_d_a6_a4_proc_2 + pi_d_a6_a4_proc_0
      + pi_d_a6_a4_proc_1 - pi_d_a5_a6_proc_0 + pi_d_a6_a5_proc_0
      + pi_d_a6_a7_proc_2 + pi_d_a6_a7_proc_0 + pi_d_a6_a7_proc_1
      - pi_d_a7_a6_proc_2 - pi_d_a7_a6_proc_0 - pi_d_a7_a6_proc_1
      + pi_d_a6_a8_proc_2 + pi_d_a6_a8_proc_0 + pi_d_a6_a8_proc_1
      - pi_d_a8_a6_proc_2 - pi_d_a8_a6_proc_0 - pi_d_a8_a6_proc_1
      + pi_d_a6_a9_proc_2 + pi_d_a6_a9_proc_0 + pi_d_a6_a9_proc_1
      - pi_d_a9_a6_proc_2 - pi_d_a9_a6_proc_0 - pi_d_a9_a6_proc_1 >= 0
 c25: 1190 pi_p_a6_a7 + 1190 pi_p_a6_a8 + 1190 pi_d_a6_a0_proc_0
      + 1190 pi_d_a6_a1_proc_0 + 1190 pi_d_a6_a2_proc_0 + 1190 pi_d_a6_a3_proc_0
      + 1190 pi_d_a6_a4_proc_0 + 1190 pi_d_a6_a5_proc_0 + 1190 pi_d_a6_a7_proc_0
      + 1190 pi_d_a6_a8_proc_0 + 1190 pi_d_a6_a9_proc_0 + pi_y1_a6
      + pi_y2_a6_proc_0 >= 0
 c26: 1191 pi_p_a6_a7 + 1191 pi_p_a6_a8 + 1191 pi_d_a6_a0_proc_1
      + 1191 pi_d_a6_a1_proc_1 + 1191 pi_d_a6_a3_proc_1 + 1191 pi_d_a6_a4_proc_1
      + 1191 pi_d_a6_a7_proc_1 + 1191 pi_d_a6_a8_proc_1 + 1191 pi_d_a6_a9_proc_1
      + pi_y1_a6 + pi_y2_a6_proc_1 >= 0
 c27: 775 pi_p_a6_a7 + 775 pi_p_a6_a8 + 775 pi_d_a6_a0_proc_2
      + 775 pi_d_a6_a1_proc_2 + 775 pi_d_a6_a2_proc_2 + 775 pi_d_a6_a3_proc_2
      + 775 pi_d_a6_a4_proc_2 + 775 pi_d_a6_a7_proc_2 + 775 pi_d_a6_a8_proc_2
      + 775 pi_d_a6_a9_proc_2 + pi_y1_a6 + pi_y2_a6_proc_2 >= 0
 c28: - pi_p_a6_a7 - pi_p_a5_a7 + pi_p_a7_a5 + pi_p_a7_a0 - pi_d_a0_a7_proc_2
      - pi_d_a0_a7_proc_0 - pi_d_a0_a7_proc_1 + pi_d_a7_a0_proc_2
      + pi_d_a7_a0_proc_0 + pi_d_a7_a0_proc_1 - pi_d_a1_a7_proc_2
      - pi_d_a1_a7_proc_0 - pi_d_a1_a7_proc_1 + pi_d_a7_a1_proc_2
      + pi_d_a7_a1_proc_0 + pi_d_a7_a1_proc_1 - pi_d_a2_a7_proc_2
      - pi_d_a2_a7_proc_0 + pi_d_a7_a2_proc_2 + pi_d_a7_a2_proc_0
      - pi_d_a3_a7_proc_2 - pi_d_a3_a7_proc_0 - pi_d_a3_a7_proc_1
      + pi_d_a7_a3_proc_2 + pi_d_a7_a3_proc_0 + pi_d_a7_a3_proc_1
      - pi_d_a4_a7_proc_2 - pi_d_a4_a7_proc_0 - pi_d_a4_a7_proc_1
      + pi_d_a7_a4_proc_2 + pi_d_a7_a4_proc_0 + pi_d_a7_a4_proc_1
      - pi_d_a5_a7_proc_0 + pi_d_a7_a5_proc_0 - pi_d_a6_a7_proc_2
      - pi_d_a6_a7_proc_0 - pi_d_a6_a7_proc_1 + pi_d_a7_a6_proc_2
      + pi_d_a7_a6_proc_0 + pi_d_a7_a6_proc_1 + pi_d_a7_a8_proc_2
      + pi_d_a7_a8_proc_0 + pi_d_a7_a8_proc_1 - pi_d_a8_a7_proc_2
      - pi_d_a8_a7_proc_0 - pi_d_a8_a7_proc_1 + pi_d_a7_a9_proc_2
      + pi_d_a7_a9_proc_0 + pi_d_a7_a9_proc_1 - pi_d_a9_a7_proc_2
      - pi_d_a9_a7_proc_0 - pi_d_a9_a7_proc_1 >= 0
 c29: 963 pi_p_a7_a5 + 963 pi_p_a7_a0 + 963 pi_d_a7_a0_proc_0
      + 963 pi_d_a7_a1_proc_0 + 963 pi_d_a7_a2_proc_0 + 963 pi_d_a7_a3_proc_0
      + 963 pi_d_a7_a4_proc_0 + 963 pi_d_a7_a5_proc_0 + 963 pi_d_a7_a6_proc_0
      + 963 pi_d_a7_a8_proc_0 + 963 pi_d_a7_a9_proc_0 + pi_y1_a7
      + pi_y2_a7_proc_0 >= 0
 c30: 1038 pi_p_a7_a5 + 1038 pi_p_a7_a0 + 1038 pi_d_a7_a0_proc_1
      + 1038 pi_d_a7_a1_proc_1 + 1038 pi_d_a7_a3_proc_1 + 1038 pi_d_a7_a4_proc_1
      + 1038 pi_d_a7_a6_proc_1 + 1038 pi_d_a7_a8_proc_1 + 1038 pi_d_a7_a9_proc_1
      + pi_y1_a7 + pi_y2_a7_proc_1 >= 0
 c31: 457 pi_p_a7_a5 + 457 pi_p_a7_a0 + 457 pi_d_a7_a0_proc_2
      + 457 pi_d_a7_a1_proc_2 + 457 pi_d_a7_a2_proc_2 + 457 pi_d_a7_a3_proc_2
      + 457 pi_d_a7_a4_proc_2 + 457 pi_d_a7_a6_proc_2 + 457 pi_d_a7_a8_proc_2
      + 457 pi_d_a7_a9_proc_2 + pi_y1_a7 + pi_y2_a7_proc_2 >= 0
 c32: pi_p_a8_a6 + pi_p_a8_a9 - pi_p_a6_a8 - pi_d_a0_a8_proc_2
      - pi_d_a0_a8_proc_0 - pi_d_a0_a8_proc_1 + pi_d_a8_a0_proc_2
      + pi_d_a8_a0_proc_0 + pi_d_a8_a0_proc_1 - pi_d_a1_a8_proc_2
      - pi_d_a1_a8_proc_0 - pi_d_a1_a8_proc_1 + pi_d_a8_a1_proc_2
      + pi_d_a8_a1_proc_0 + pi_d_a8_a1_proc_1 - pi_d_a2_a8_proc_2
      - pi_d_a2_a8_proc_0 + pi_d_a8_a2_proc_2 + pi_d_a8_a2_proc_0
      - pi_d_a3_a8_proc_2 - pi_d_a3_a8_proc_0 - pi_d_a3_a8_proc_1
      + pi_d_a8_a3_proc_2 + pi_d_a8_a3_proc_0 + pi_d_a8_a3_proc_1
      - pi_d_a4_a8_proc_2 - pi_d_a4_a8_proc_0 - pi_d_a4_a8_proc_1
      + pi_d_a8_a4_proc_2 + pi_d_a8_a4_proc_0 + pi_d_a8_a4_proc_1
      - pi_d_a5_a8_proc_0 + pi_d_a8_a5_proc_0 - pi_d_a6_a8_proc_2
      - pi_d_a6_a8_proc_0 - pi_d_a6_a8_proc_1 + pi_d_a8_a6_proc_2
      + pi_d_a8_a6_proc_0 + pi_d_a8_a6_proc_1 - pi_d_a7_a8_proc_2
      - pi_d_a7_a8_proc_0 - pi_d_a7_a8_proc_1 + pi_d_a8_a7_proc_2
      + pi_d_a8_a7_proc_0 + pi_d_a8_a7_proc_1 + pi_d_a8_a9_proc_2
      + pi_d_a8_a9_proc_0 + pi_d_a8_a9_proc_1 - pi_d_a9_a8_proc_2
      - pi_d_a9_a8_proc_0 - pi_d_a9_a8_proc_1 >= 0
 c33: 1196 pi_p_a8_a6 + 1196 pi_p_a8_a9 + 1196 pi_d_a8_a0_proc_0
      + 1196 pi_d_a8_a1_proc_0 + 1196 pi_d_a8_a2_proc_0 + 1196 pi_d_a8_a3_proc_0
      + 1196 pi_d_a8_a4_proc_0 + 1196 pi_d_a8_a5_proc_0 + 1196 pi_d_a8_a6_proc_0
      + 1196 pi_d_a8_a7_proc_0 + 1196 pi_d_a8_a9_proc_0 + pi_y1_a8
      + pi_y2_a8_proc_0 >= 0
 c34: 608 pi_p_a8_a6 + 608 pi_p_a8_a9 + 608 pi_d_a8_a0_proc_1
      + 608 pi_d_a8_a1_proc_1 + 608 pi_d_a8_a3_proc_1 + 608 pi_d_a8_a4_proc_1
      + 608 pi_d_a8_a6_proc_1 + 608 pi_d_a8_a7_proc_1 + 608 pi_d_a8_a9_proc_1
      + pi_y1_a8 + pi_y2_a8_proc_1 >= 0
 c35: 859 pi_p_a8_a6 + 859 pi_p_a8_a9 + 859 pi_d_a8_a0_proc_2
      + 859 pi_d_a8_a1_proc_2 + 859 pi_d_a8_a2_proc_2 + 859 pi_d_a8_a3_proc_2
      + 859 pi_d_a8_a4_proc_2 + 859 pi_d_a8_a6_proc_2 + 859 pi_d_a8_a7_proc_2
      + 859 pi_d_a8_a9_proc_2 + pi_y1_a8 + pi_y2_a8_proc_2 >= 0
 c36: pi_p_a9_a6 - pi_p_a8_a9 - pi_d_a0_a9_proc_2 - pi_d_a0_a9_proc_0
      - pi_d_a0_a9_proc_1 + pi_d_a9_a0_proc_2 + pi_d_a9_a0_proc_0
      + pi_d_a9_a0_proc_1 - pi_d_a1_a9_proc_2 - pi_d_a1_a9_proc_0
      - pi_d_a1_a9_proc_1 + pi_d_a9_a1_proc_2 + pi_d_a9_a1_proc_0
      + pi_d_a9_a1_proc_1 - pi_d_a2_a9_proc_2 - pi_d_a2_a9_proc_0
      + pi_d_a9_a2_proc_2 + pi_d_a9_a2_proc_0 - pi_d_a3_a9_proc_2
      - pi_d_a3_a9_proc_0 - pi_d_a3_a9_proc_1 + pi_d_a9_a3_proc_2
      + pi_d_a9_a3_proc_0 + pi_d_a9_a3_proc_1 - pi_d_a4_a9_proc_2
      - pi_d_a4_a9_proc_0 - pi_d_a4_a9_proc_1 + pi_d_a9_a4_proc_2
      + pi_d_a9_a4_proc_0 + pi_d_a9_a4_proc_1 - pi_d_a5_a9_proc_0
      + pi_d_a9_a5_proc_0 - pi_d_a6_a9_proc_2 - pi_d_a6_a9_proc_0
      - pi_d_a6_a9_proc_1 + pi_d_a9_a6_proc_2 + pi_d_a9_a6_proc_0
      + pi_d_a9_a6_proc_1 - pi_d_a7_a9_proc_2 - pi_d_a7_a9_proc_0
      - pi_d_a7_a9_proc_1 + pi_d_a9_a7_proc_2 + pi_d_a9_a7_proc_0
      + pi_d_a9_a7_proc_1 - pi_d_a8_a9_proc_2 - pi_d_a8_a9_proc_0
      - pi_d_a8_a9_proc_1 + pi_d_a9_a8_proc_2 + pi_d_a9_a8_proc_0
      + pi_d_a9_a8_proc_1 >= 0
 c37: 1159 pi_p_a9_a6 + 1159 pi_d_a9_a0_proc_0 + 1159 pi_d_a9_a1_proc_0
      + 1159 pi_d_a9_a2_proc_0 + 1159 pi_d_a9_a3_proc_0 + 1159 pi_d_a9_a4_proc_0
      + 1159 pi_d_a9_a5_proc_0 + 1159 pi_d_a9_a6_proc_0 + 1159 pi_d_a9_a7_proc_0
      + 1159 pi_d_a9_a8_proc_0 + pi_y1_a9 + pi_y2_a9_proc_0 >= 0
 c38: 812 pi_p_a9_a6 + 812 pi_d_a9_a0_proc_1 + 812 pi_d_a9_a1_proc_1
      + 812 pi_d_a9_a3_proc_1 + 812 pi_d_a9_a4_proc_1 + 812 pi_d_a9_a6_proc_1
      + 812 pi_d_a9_a7_proc_1 + 812 pi_d_a9_a8_proc_1 + pi_y1_a9
      + pi_y2_a9_proc_1 >= 0
 c39: 995 pi_p_a9_a6 + 995 pi_d_a9_a0_proc_2 + 995 pi_d_a9_a1_proc_2
      + 995 pi_d_a9_a2_proc_2 + 995 pi_d_a9_a3_proc_2 + 995 pi_d_a9_a4_proc_2
      + 995 pi_d_a9_a6_proc_2 + 995 pi_d_a9_a7_proc_2 + 995 pi_d_a9_a8_proc_2
      + pi_y1_a9 + pi_y2_a9_proc_2 >= 0

Bounds
       pi_y1_a0 Free
       pi_y1_a1 Free
       pi_y1_a2 Free
       pi_y1_a3 Free
       pi_y1_a4 Free
       pi_y1_a5 Free
       pi_y1_a6 Free
       pi_y1_a7 Free
       pi_y1_a8 Free
       pi_y1_a9 Free
End
