benchmark/results/graph__10-1000-0.10-03_8/graph__10-1000-0.10-03_8_QuintonOs_Benders_aux.txt
solution for: Quinton Bounded Benders_auxiliary_sub
objective: 0.000230681
status: OPTIMAL_SOLUTION(2)
pi_p_a1_a0=0.000
pi_p_a4_a1=0.000
pi_p_a0_a6=0.000
pi_p_a6_a7=0.000
pi_p_a7_a5=0.000
pi_p_a5_a4=0.000
pi_y1_a0=-0.203
pi_y1_a1=-0.141
pi_y1_a4=-0.175
pi_y1_a5=-0.196
pi_y1_a6=-0.179
pi_y1_a7=-0.105
